4 124 200 122 84 174 83 196 56 173 70 184 6 149 120 69 58 11 118 88 177 50 89 57 114 23 53 101 55 180 183 18 190 91 198 145 51 147 178 73 93 19 26 141 10 25 104 164 60 123 2 46 20 146 150 92 154 171 78 153 
14 49 36 48 152 195 29 139 37 54 199 132 5 34 176 87 172 181 62 22 119 44 80 95 148 103 140 66 33 166 159 130 163 142 131 15 102 96 126 1 138 186 193 110 179 27 134 13 71 81 165 157 32 192 189 
67 113 28 156 167 85 59 98 61 188 72 187 68 111 182 144 12 143 21 41 17 64 162 42 47 90 136 97 8 191 76 197 116 16 40 194 86 117 99 160 125 65 9 121 127 175 135 39 3 161 106 31 52 
100 63 7 24 35 170 105 77 137 79 107 115 158 94 151 129 45 74 82 185 30 75 
155 43 168 108 38 112 109 
169 133 128 

